c 149_4_checker_6cl.cnf
c
c field = 149
c formula set type = 4_checker_6cl
c
p cnf 6 16
288 
290 
292 
294 
-286 
-298 
289 
291 
293 
295 
-287 
-299 
176 
206 
236 
266 
-146 
-326 
177 
207 
237 
267 
-147 
-327 
206 
236 
266 
326 
-176 
-356 
207 
237 
267 
327 
-177 
-357 
236 
266 
326 
356 
-206 
-386 
237 
267 
327 
357 
-207 
-387 
266 
326 
356 
386 
-236 
-416 
267 
327 
357 
387 
-237 
-417 
326 
356 
386 
416 
-266 
-446 
327 
357 
387 
417 
-267 
-447 
168 
200 
232 
264 
-136 
-328 
169 
201 
233 
265 
-137 
-329 
324 
352 
380 
408 
-268 
-436 
325 
353 
381 
409 
-269 
-437 
